gurobi/temp.lp
Maximize
18.0 x0 +30.0 x1 +36.0 x2 +42.0 x3 +54.0 x4 +58.0 x5 
Subject To
-18.0 x0 -30.0 x1 -36.0 x2 -30.0 x3 -18.0 x4 -14.0 x5  <= 11
-18.0 x0 -30.0 x1 -36.0 x2 -30.0 x3 -18.0 x4 -14.0 x5  >= -1
-18.0 x0 -6.0 x1 +0.0 x2 -6.0 x3 -18.0 x4 -14.0 x5  <= 11
-18.0 x0 -6.0 x1 +0.0 x2 -6.0 x3 -18.0 x4 -14.0 x5  >= -1
18.0 x0 +6.0 x1 +0.0 x2 -6.0 x3 -18.0 x4 -14.0 x5  <= 11
18.0 x0 +6.0 x1 +0.0 x2 -6.0 x3 -18.0 x4 -14.0 x5  >= -1
0.0 x0 +0.0 x1 +0.0 x2 +0.0 x3 +0.0 x4 +4.0 x5  <= 11
0.0 x0 +0.0 x1 +0.0 x2 +0.0 x3 +0.0 x4 +4.0 x5  >= -1
0.0 x0 -3.0 x1 +0.0 x2 +0.0 x3 +0.0 x4 +1.0 x5  <= 11
0.0 x0 -3.0 x1 +0.0 x2 +0.0 x3 +0.0 x4 +1.0 x5  >= -1
0.0 x0 +3.0 x1 +0.0 x2 +0.0 x3 +0.0 x4 +1.0 x5  <= 11
0.0 x0 +3.0 x1 +0.0 x2 +0.0 x3 +0.0 x4 +1.0 x5  >= -1
0.0 x0 +0.0 x1 +0.0 x2 -3.0 x3 +0.0 x4 -2.0 x5  <= 11
0.0 x0 +0.0 x1 +0.0 x2 -3.0 x3 +0.0 x4 -2.0 x5  >= -1
0.0 x0 +0.0 x1 +0.0 x2 +3.0 x3 +0.0 x4 -2.0 x5  <= 11
0.0 x0 +0.0 x1 +0.0 x2 +3.0 x3 +0.0 x4 -2.0 x5  >= -1
End
