gurobi/temp.sol
# Objective value = 1
x0 1
x4 0
x6 0
x5 0
x7 0
x8 0
x9 0
x10 0
x11 0
x12 0
x15 0
x13 0
x14 0
